N = 10;
T = 7;
K = 3;
C = 219.0;
furnance = 2;
color = 1;
machines = [4 5 6];
products = [22 253 178 132 184 229 219 88 69 96];
MINik = [[12.0 12.0 16.0],[12.0 12.0 16.0],[12.0 12.0 16.0],[12.0 12.0 16.0],[12.0 12.0 16.0],[12.0 12.0 16.0],[12.0 12.0 16.0],[12.0 12.0 16.0],[12.0 12.0 16.0],[12.0 12.0 16.0]];
MAXik = [[16.0 16.0 0.0],[16.0 16.0 20.0],[16.0 16.0 0.0],[16.0 16.0 20.0],[16.0 16.0 0.0],[16.0 16.0 20.0],[16.0 16.0 0.0],[16.0 16.0 20.0],[16.0 16.0 20.0],[16.0 16.0 20.0]];
Pik = [[4.7109888 4.7109888 4.7109888],[3.6868608000000003 3.6868608000000003 3.6868608000000003],[4.9094136 4.9094136 4.9094136],[2.5795224 2.5795224 2.5795224],[3.744468 3.744468 3.744468],[2.9162044799999998 2.9162044799999998 2.9162044799999998],[2.63584944 2.63584944 2.63584944],[3.8020752 3.8020752 3.8020752],[2.32861104 2.32861104 2.32861104],[2.32029 2.32029 2.32029]];
Dit = [[0.0 0.0 0.0 0.0 0.0 0.0 60.0],[0.0 0.0 0.0 0.0 0.0 0.0 106.0],[0.0 0.0 0.0 0.0 0.0 0.0 123.0],[0.0 0.0 0.0 0.0 0.0 0.0 115.0],[0.0 0.0 0.0 0.0 0.0 0.0 95.0],[0.0 0.0 0.0 0.0 0.0 0.0 83.0],[0.0 0.0 0.0 0.0 0.0 0.0 33.0],[0.0 0.0 0.0 0.0 0.0 0.0 48.0],[0.0 0.0 0.0 0.0 0.0 0.0 37.0],[0.0 0.0 0.0 0.0 0.0 0.0 124.0]];
Sijk = [[[0.0 0.0 0.0],[11.0 11.0 13.0],[12.0 12.0 1.0E9],[8.0 5.0 11.0],[9.0 8.0 1.0E9],[10.0 7.0 7.0],[7.0 5.0 1.0E9],[7.0 10.0 11.0],[8.0 5.0 6.0],[7.0 5.0 7.0]]
[[10.0 12.0 1.0E9],[0.0 0.0 0.0],[15.0 12.0 1.0E9],[6.0 9.0 10.0],[9.0 10.0 1.0E9],[6.0 7.0 11.0],[6.0 7.0 1.0E9],[13.0 10.0 9.0],[6.0 6.0 9.0],[7.0 5.0 9.0]]
[[14.0 11.0 1.0E9],[12.0 11.0 13.0],[0.0 0.0 0.0],[5.0 8.0 10.0],[12.0 12.0 1.0E9],[8.0 6.0 6.0],[6.0 7.0 1.0E9],[10.0 9.0 12.0],[6.0 5.0 9.0],[5.0 7.0 9.0]]
[[9.0 9.0 1.0E9],[12.0 10.0 9.0],[11.0 8.0 1.0E9],[0.0 0.0 0.0],[12.0 7.0 1.0E9],[7.0 6.0 8.0],[5.0 7.0 1.0E9],[8.0 13.0 15.0],[6.0 7.0 8.0],[6.0 8.0 7.0]]
[[14.0 10.0 1.0E9],[7.0 10.0 10.0],[13.0 11.0 1.0E9],[8.0 6.0 6.0],[0.0 0.0 0.0],[7.0 9.0 10.0],[7.0 7.0 1.0E9],[12.0 8.0 13.0],[6.0 4.0 6.0],[7.0 8.0 8.0]]
[[15.0 14.0 1.0E9],[12.0 12.0 13.0],[13.0 14.0 1.0E9],[5.0 5.0 9.0],[10.0 11.0 1.0E9],[0.0 0.0 0.0],[6.0 6.0 1.0E9],[11.0 12.0 14.0],[7.0 7.0 8.0],[6.0 5.0 5.0]]
[[13.0 14.0 1.0E9],[11.0 8.0 11.0],[14.0 9.0 1.0E9],[6.0 7.0 10.0],[9.0 7.0 1.0E9],[6.0 6.0 8.0],[0.0 0.0 0.0],[7.0 7.0 12.0],[5.0 7.0 7.0],[7.0 5.0 6.0]]
[[14.0 10.0 1.0E9],[10.0 7.0 8.0],[11.0 10.0 1.0E9],[9.0 7.0 8.0],[12.0 8.0 1.0E9],[9.0 7.0 11.0],[7.0 7.0 1.0E9],[0.0 0.0 0.0],[5.0 8.0 8.0],[5.0 6.0 9.0]]
[[13.0 13.0 1.0E9],[11.0 6.0 10.0],[11.0 12.0 1.0E9],[5.0 6.0 10.0],[10.0 8.0 1.0E9],[8.0 9.0 8.0],[6.0 9.0 1.0E9],[7.0 13.0 8.0],[0.0 0.0 0.0],[8.0 5.0 6.0]]
[[8.0 13.0 1.0E9],[7.0 11.0 13.0],[14.0 10.0 1.0E9],[6.0 8.0 7.0],[8.0 8.0 1.0E9],[7.0 10.0 6.0],[8.0 8.0 1.0E9],[7.0 9.0 9.0],[5.0 7.0 8.0],[0.0 0.0 0.0]]];
Cijk = [[[0.0 0.0 0.0],[11.0 11.0 13.0],[12.0 12.0 1.0E9],[8.0 5.0 11.0],[9.0 8.0 1.0E9],[10.0 7.0 7.0],[7.0 5.0 1.0E9],[7.0 10.0 11.0],[8.0 5.0 6.0],[7.0 5.0 7.0]]
[[10.0 12.0 1.0E9],[0.0 0.0 0.0],[15.0 12.0 1.0E9],[6.0 9.0 10.0],[9.0 10.0 1.0E9],[6.0 7.0 11.0],[6.0 7.0 1.0E9],[13.0 10.0 9.0],[6.0 6.0 9.0],[7.0 5.0 9.0]]
[[14.0 11.0 1.0E9],[12.0 11.0 13.0],[0.0 0.0 0.0],[5.0 8.0 10.0],[12.0 12.0 1.0E9],[8.0 6.0 6.0],[6.0 7.0 1.0E9],[10.0 9.0 12.0],[6.0 5.0 9.0],[5.0 7.0 9.0]]
[[9.0 9.0 1.0E9],[12.0 10.0 9.0],[11.0 8.0 1.0E9],[0.0 0.0 0.0],[12.0 7.0 1.0E9],[7.0 6.0 8.0],[5.0 7.0 1.0E9],[8.0 13.0 15.0],[6.0 7.0 8.0],[6.0 8.0 7.0]]
[[14.0 10.0 1.0E9],[7.0 10.0 10.0],[13.0 11.0 1.0E9],[8.0 6.0 6.0],[0.0 0.0 0.0],[7.0 9.0 10.0],[7.0 7.0 1.0E9],[12.0 8.0 13.0],[6.0 4.0 6.0],[7.0 8.0 8.0]]
[[15.0 14.0 1.0E9],[12.0 12.0 13.0],[13.0 14.0 1.0E9],[5.0 5.0 9.0],[10.0 11.0 1.0E9],[0.0 0.0 0.0],[6.0 6.0 1.0E9],[11.0 12.0 14.0],[7.0 7.0 8.0],[6.0 5.0 5.0]]
[[13.0 14.0 1.0E9],[11.0 8.0 11.0],[14.0 9.0 1.0E9],[6.0 7.0 10.0],[9.0 7.0 1.0E9],[6.0 6.0 8.0],[0.0 0.0 0.0],[7.0 7.0 12.0],[5.0 7.0 7.0],[7.0 5.0 6.0]]
[[14.0 10.0 1.0E9],[10.0 7.0 8.0],[11.0 10.0 1.0E9],[9.0 7.0 8.0],[12.0 8.0 1.0E9],[9.0 7.0 11.0],[7.0 7.0 1.0E9],[0.0 0.0 0.0],[5.0 8.0 8.0],[5.0 6.0 9.0]]
[[13.0 13.0 1.0E9],[11.0 6.0 10.0],[11.0 12.0 1.0E9],[5.0 6.0 10.0],[10.0 8.0 1.0E9],[8.0 9.0 8.0],[6.0 9.0 1.0E9],[7.0 13.0 8.0],[0.0 0.0 0.0],[8.0 5.0 6.0]]
[[8.0 13.0 1.0E9],[7.0 11.0 13.0],[14.0 10.0 1.0E9],[6.0 8.0 7.0],[8.0 8.0 1.0E9],[7.0 10.0 6.0],[8.0 8.0 1.0E9],[7.0 9.0 9.0],[5.0 7.0 8.0],[0.0 0.0 0.0]]];
Hi = [0.2 0.2 0.2 0.2 0.2 0.2 0.2 0.2 0.2 0.2];
